c read Graph
c width = 113
c time = 493 ms
c width = 12
c time = 611 ms
c width = 11
c time = 823 ms
c width = 10
c time = 1424 ms
c width = 9
c time = 3557 ms
c width = 9
c time = 4011 ms
s td 116 10 126
b 1 1 2 15
b 2 2 3 15 16
b 3 12 13 27 28
b 4 3 15 16 29
b 5 12 27 28 42
b 6 85 99 100 114
b 7 98 111 112 125
b 8 85 100 114 115
b 9 98 111 124 125
b 10 3 4 5 18
b 11 3 5 17 18 30 43
b 12 3 17 29 30 43
b 13 3 16 17 29 30
b 14 5 17 18 30 32 43 45
b 15 17 30 31 32 45
b 16 5 18 30 32 43 45 58
b 17 30 43 44 45 58
b 18 5 18 19 32 43 45 58
b 19 5 19 20 32 33 43 45 58
b 20 5 20 32 33 43 45 46 58
b 21 5 20 33 34 43 45 46 47 58
b 22 5 7 20 34 43 45 46 47 58
b 23 5 6 7 20
b 24 7 9 22 24 37 52 67 69 82 84
b 25 7 22 37 52 67 69 82 84 97
b 26 7 22 37 52 67 82 84 97 110 124
b 27 7 22 37 52 67 82 95 97 110 124
b 28 7 22 37 52 67 80 82 95 110 124
b 29 7 22 37 52 65 67 80 95 110 124
b 30 7 22 37 50 52 65 80 95 110 124
b 31 7 22 35 37 50 65 80 95 110 124
b 32 7 20 22 35 50 65 80 95 110 124
b 33 7 20 35 50 65 80 95 109 110 124
b 34 7 20 35 50 65 80 94 95 109 124
b 35 7 20 35 50 65 80 94 109 122 124
b 36 7 20 35 50 65 80 94 108 109 122
b 37 7 20 35 50 65 80 93 94 108 122
b 38 7 20 35 50 65 78 80 93 108 122
b 39 7 20 35 50 63 65 78 93 108 122
b 40 7 20 35 48 50 63 78 93 108 122
b 41 7 20 34 35 48 63 78 93 108 122
b 42 7 20 34 48 63 78 93 107 108 122
b 43 7 20 34 48 63 78 92 93 107 122
b 44 7 20 34 48 63 77 78 92 107 122
b 45 7 20 34 48 62 63 77 92 107 122
b 46 7 20 34 47 48 62 77 92 107 122
b 47 7 20 34 47 62 77 92 107 121 122
b 48 7 20 34 47 62 77 92 107 120 121
b 49 7 20 34 47 62 77 92 105 107 120
b 50 7 20 34 47 62 77 91 92 105 120
b 51 7 20 34 47 62 76 77 91 105 120
b 52 7 20 34 47 61 62 76 91 105 120
b 53 7 20 34 47 61 76 90 91 105 120
b 54 7 20 34 47 61 75 76 90 105 120
b 55 7 20 34 47 60 61 75 90 105 120
b 56 7 20 34 47 60 75 90 105 118 120
b 57 7 20 34 47 60 75 90 104 105 118
b 58 7 20 34 47 60 75 89 90 104 118
b 59 7 20 34 47 60 74 75 89 104 118
b 60 7 20 34 47 60 74 89 103 104 118
b 61 7 20 34 47 60 74 88 89 103 118
b 62 7 20 34 47 60 73 74 88 103 118
b 63 7 20 34 47 60 73 88 103 117 118
b 64 7 20 34 47 60 73 88 102 103 117
b 65 7 20 34 47 60 73 87 88 102 117
b 66 7 20 34 47 60 73 87 102 116 117
b 67 7 20 34 47 60 73 87 101 102 116
b 68 7 20 34 47 60 73 86 87 101 116
b 69 7 20 34 47 60 73 86 101 115 116
b 70 7 20 34 47 60 73 86 100 101 115
b 71 7 20 34 47 60 73 85 86 100 115
b 72 7 20 34 47 60 71 73 85 86 115
b 73 7 20 34 47 60 71 72 73 86 115
b 74 7 20 34 47 57 60 71 72 73 115
b 75 7 20 34 47 57 58 60 72 73 115
b 76 7 20 34 43 47 57 58 60 73 115
b 77 7 20 34 43 47 58 59 60 73 115
b 78 7 20 34 43 45 47 58 59 60 115
b 79 7 20 34 43 45 46 47 58 60 115
b 80 9 24 37 52 54 67 69 82 84
b 81 54 67 68 69 82
b 82 9 24 37 39 52 54 67 69 84
b 83 9 24 39 54 56 69 84
b 84 56 69 70 84
b 85 9 11 24 39 54 56 69
b 86 9 10 11 24
b 87 11 24 39 41 54 56 69
b 88 11 24 26 39 41 54 56
b 89 11 26 41 42 56
b 90 11 12 26 41 42
b 91 12 26 27 41 42
b 92 11 24 25 26 39
b 93 26 39 40 41 54
b 94 41 54 55 56 69
b 95 39 52 53 54 67
b 96 24 37 38 39 52
b 97 109 122 123 124
b 98 82 95 96 97 110
b 99 69 82 83 84 97
b 100 84 97 98 110 124
b 101 97 98 110 111 124
b 102 67 80 81 82 95
b 103 52 65 66 67 80
b 104 65 78 79 80 93
b 105 105 118 119 120
b 106 92 105 106 107 120
b 107 50 63 64 65 78
b 108 35 48 49 50 63
b 109 22 35 36 37 50
b 110 7 20 21 22 35
b 111 7 8 9 22
b 112 9 22 23 24 37
b 113 37 50 51 52 65
b 114 112 125 126
b 115 99 113 114
b 116 13 14 28
1 2
2 4
3 116
3 5
4 13
5 91
6 115
6 8
7 114
7 9
8 71
9 101
10 11
11 14
11 12
12 13
14 16
14 15
16 18
16 17
18 19
19 20
20 21
21 22
22 79
22 23
24 112
24 111
24 80
24 25
25 99
25 26
26 100
26 27
27 98
27 28
28 102
28 29
29 103
29 30
30 113
30 31
31 109
31 32
32 110
32 33
33 34
34 35
35 97
35 36
36 37
37 38
38 104
38 39
39 107
39 40
40 108
40 41
41 42
42 43
43 44
44 45
45 46
46 47
47 48
48 49
49 106
49 50
50 51
51 52
52 53
53 54
54 55
55 56
56 105
56 57
57 58
58 59
59 60
60 61
61 62
62 63
63 64
64 65
65 66
66 67
67 68
68 69
69 70
70 71
71 72
72 73
73 74
74 75
75 76
76 77
77 78
78 79
80 81
80 82
82 83
82 95
82 96
83 85
83 84
85 87
85 86
87 94
87 88
88 89
88 92
88 93
89 90
90 91
100 101
